NAME : R110.6970.tour
COMMENT : Cost = 0_6970
COMMENT : Found by LKH [Keld Helsgaun] Wed Sep 13 18:34:11 2017
TYPE : TOUR
DIMENSION : 57
TOUR_SECTION
1
7
19
9
46
18
38
55
28
8
11
31
21
33
2
54
34
10
36
35
4
51
57
32
12
20
48
50
37
47
49
52
3
41
22
23
42
24
40
26
5
53
29
13
30
25
27
56
6
17
45
39
15
44
16
43
14
-1
EOF
